p tw 24 156
0 1
0 2
0 6
0 14
0 13
0 15
0 10
0 22
0 3
0 19
0 23
0 5
1 2
1 8
1 20
1 12
1 22
1 6
1 21
1 9
1 13
1 17
1 7
1 16
2 6
2 4
2 13
2 7
2 17
2 15
2 18
2 23
2 14
2 9
2 21
2 22
2 5
2 19
3 4
3 5
3 8
3 10
3 11
3 20
3 7
3 17
3 14
3 21
3 23
3 12
3 9
3 15
3 6
3 16
4 5
4 11
4 12
4 13
4 16
4 8
4 20
4 10
4 9
5 12
5 23
5 15
5 22
5 17
5 7
5 20
5 14
5 11
5 21
5 10
5 13
6 14
6 17
6 19
6 22
6 15
6 21
6 9
7 8
7 9
7 17
7 15
7 16
7 23
7 20
7 19
8 9
8 10
8 17
8 21
8 20
8 12
8 13
8 16
9 17
9 20
9 12
9 13
9 14
9 11
9 21
9 15
9 22
9 19
10 13
10 22
10 16
11 12
11 20
11 14
11 21
12 19
12 22
12 15
12 21
12 23
12 20
12 14
12 17
13 16
13 20
13 14
13 17
13 15
13 22
14 15
14 16
14 17
14 20
14 19
14 18
15 16
15 17
15 19
15 22
16 18
16 19
16 20
16 23
16 17
17 19
17 20
17 21
17 23
17 18
18 19
18 23
19 20
19 22
19 23
21 23
22 23
